NAME : portgen-30-106
COMMENT : portgen N=30, seed=106
TYPE : TSP
DIMENSION : 30
EDGE_WEIGHT_TYPE : EUC_2D
NODE_COORD_SECTION
1 442 1145
2 764 2335
3 1306 2389
4 2111 290
5 2754 41
6 1886 1384
7 29 1245
8 104 2928
9 2427 1183
10 146 1456
11 384 1893
12 668 2316
13 8 2593
14 2319 232
15 505 1114
16 227 787
17 876 2048
18 896 2970
19 2418 3110
20 291 2703
21 3096 1575
22 653 2731
23 841 2414
24 1017 1813
25 1803 838
26 576 911
27 3060 1980
28 1320 2817
29 268 1878
30 1439 1499
